p tw 30 49
e 0 9
e 0 10
e 0 14
e 0 20
e 0 21
e 0 27
e 1 8
e 1 29
e 2 17
e 2 18
e 3 11
e 3 20
e 4 7
e 4 18
e 4 19
e 4 20
e 4 26
e 5 11
e 5 21
e 5 22
e 6 16
e 6 27
e 6 29
e 7 29
e 8 25
e 9 22
e 9 23
e 10 14
e 10 23
e 10 25
e 10 28
e 11 28
e 11 29
e 12 18
e 13 17
e 14 21
e 14 23
e 14 25
e 14 26
e 15 21
e 16 22
e 17 24
e 18 23
e 18 27
e 19 27
e 21 27
e 21 28
e 25 28
e 28 29
